778,336
999,88
644,169
200,651
1020,745
657,389
626,235
823,360
518,726
311,286
681,706
727,264
830,700
789,619
672,465
713,613
755,178
436,887
935,152
681,826
1081,610
611,503
804,575
668,380
799,424
893,618
778,336
708,353
342,67
718,169
1125,336
207,481
196,563
653,229
505,648
570,748
733,334
